Version identifier: 20.1.0.0 | 2020-11-10 | 9bedb6d68
Tried aggregator 2 times.
MIP Presolve eliminated 1013 rows and 547 columns.
MIP Presolve modified 2394 coefficients.
Aggregator did 94 substitutions.
Reduced MIP has 1302 rows, 1024 columns, and 4245 nonzeros.
Reduced MIP has 189 binaries, 835 generals, 0 SOSs, and 0 indicators.
Presolve time = 0.01 sec. (5.42 ticks)
Found incumbent of value 2022.000000 after 0.03 sec. (10.87 ticks)
Probing fixed 30 vars, tightened 415 bounds.
Probing time = 0.00 sec. (0.88 ticks)
Tried aggregator 2 times.
MIP Presolve eliminated 577 rows and 102 columns.
MIP Presolve modified 153 coefficients.
Aggregator did 50 substitutions.
Reduced MIP has 675 rows, 872 columns, and 2184 nonzeros.
Reduced MIP has 269 binaries, 603 generals, 0 SOSs, and 0 indicators.
Presolve time = 0.01 sec. (3.05 ticks)
Probing time = 0.00 sec. (0.18 ticks)
Tried aggregator 1 time.
Detecting symmetries...
MIP Presolve modified 266 coefficients.
Reduced MIP has 675 rows, 872 columns, and 2184 nonzeros.
Reduced MIP has 269 binaries, 603 generals, 0 SOSs, and 0 indicators.
Presolve time = 0.00 sec. (1.64 ticks)
Probing time = 0.00 sec. (0.17 ticks)
Clique table members: 5.
MIP emphasis: balance optimality and feasibility.
MIP search method: dynamic search.
Parallel mode: deterministic, using up to 24 threads.
Root relaxation solution time = 0.00 sec. (1.47 ticks)

        Nodes                                         Cuts/
   Node  Left     Objective  IInf  Best Integer    Best Bound    ItCnt     Gap

*     0+    0                         2022.0000        0.0000           100.00%
      0     0        0.0000    38     2022.0000        0.0000      172  100.00%
*     0+    0                           18.0000        0.0000           100.00%
      0     0        0.0196   141       18.0000     Cuts: 115      444   99.89%
      0     0        0.5625   213       18.0000      Cuts: 93      549   96.87%
      0     0        0.6354   141       18.0000      Cuts: 61      609   96.47%
      0     0        1.1497   122       18.0000      Cuts: 48      744   93.61%
      0     0        1.2062   286       18.0000      Cuts: 48      814   93.30%
*     0+    0                           17.0000        1.2062            92.90%
      0     0        1.2165   244       17.0000      Cuts: 82      881   92.84%
      0     0        1.2165   284       17.0000      Cuts: 44      928   92.84%
      0     0        1.2165   234       17.0000      Cuts: 12      945   92.84%
      0     0        1.3163   258       17.0000      Cuts: 63     1037   92.26%
      0     0        1.3271   287       17.0000      Cuts: 62     1118   92.19%
*     0+    0                           11.0000        1.3271            87.94%
      0     0        cutoff             11.0000       11.0000     1175    0.00%
Elapsed time = 0.41 sec. (98.67 ticks, tree = 0.01 MB, solutions = 4)

Implied bound cuts applied:  17
Flow cuts applied:  24
Mixed integer rounding cuts applied:  15
Zero-half cuts applied:  92
Gomory fractional cuts applied:  8

Root node processing (before b&c):
  Real time             =    0.42 sec. (98.77 ticks)
Parallel b&c, 24 threads:
  Real time             =    0.00 sec. (0.00 ticks)
  Sync time (average)   =    0.00 sec.
  Wait time (average)   =    0.00 sec.
                          ------------
Total (root+branch&cut) =    0.42 sec. (98.77 ticks)

Solution status = Optimal
Solution LB = 11
Solution UB = 11
Runtime = 0.422649 seconds
	Command being timed: "/home/min/git_repos/CS598MEBProject/CNT-ILP/build/cnt -s 2 ./output/k8_n15/simC_c1_k8_n15_u1_s3_del04.input-right.cnp"
	User time (seconds): 6.14
	System time (seconds): 0.04
	Percent of CPU this job got: 1408%
	Elapsed (wall clock) time (h:mm:ss or m:ss): 0:00.43
	Average shared text size (kbytes): 0
	Average unshared data size (kbytes): 0
	Average stack size (kbytes): 0
	Average total size (kbytes): 0
	Maximum resident set size (kbytes): 75232
	Average resident set size (kbytes): 0
	Major (requiring I/O) page faults: 0
	Minor (reclaiming a frame) page faults: 16253
	Voluntary context switches: 3311
	Involuntary context switches: 1088
	Swaps: 0
	File system inputs: 0
	File system outputs: 16
	Socket messages sent: 0
	Socket messages received: 0
	Signals delivered: 0
	Page size (bytes): 4096
	Exit status: 0
